                                        
   1.00000000000000     
    12.5150361169283677    0.0000000273773403    0.0000000299863284
     0.0000000268676772   12.5150361430482331    0.0000000164752051
     0.0000000559379770    0.0000000244000674   12.5150360567636589
   Cs   Pb   I    Zn
     8     7    24     1
Direct
  0.2523927968714153  0.2523927895858364  0.2523928048703942
  0.7476072222942550  0.7476072274072574  0.7476072172575119
  0.7476072042227588  0.7476072070239461  0.2523928013136038
  0.2523928007215245  0.2523927944085226  0.7476071976522455
  0.7476072080657126  0.2523927907377442  0.7476072020873961
  0.2523927988354349  0.7476072022316345  0.2523927964446251
  0.2523927948049571  0.7476072126301908  0.7476072064258903
  0.7476072068128432  0.2523927922630083  0.2523927955398227
 -0.0000000016464298 -0.0000000046005171 -0.0000000014100739
  0.4999999924318430 -0.0000000078133323 -0.0000000016192700
 -0.0000000033007509  0.4999999929789198 -0.0000000022726406
 -0.0000000186703787  0.4999999981096333  0.4999999925133978
  0.4999999937990251 -0.0000000303684414  0.4999999898973442
  0.4999999938766053  0.4999999947741278 -0.0000000164916544
 -0.0000000029461227 -0.0000000083772761  0.4999999885665542
  0.2502590315014367  0.0000000177608378  0.0000000317962220
  0.7497409644010467  0.0000000179721203  0.0000000251480083
  0.0000000221829194  0.2502590323317648  0.0000000301193414
  0.0000000252992922  0.7497409647335550  0.0000000277965555
  0.0000000239151880  0.0000000189957796  0.2502590324455259
  0.0000000161924452  0.0000000184750880  0.7497409649606397
  0.2505631066420137  0.0000000270247802  0.5000000103992789
  0.7494368914671639  0.0000000260397066  0.5000000135607555
  0.5000000188710653  0.2505631117463013  0.0000000300447282
  0.5000000168970522  0.7494368906185216  0.0000000326781152
  0.0000000306899696  0.5000000226548810  0.2505631087387031
  0.0000000322156819  0.5000000184671959  0.7494368925132674
  0.0000000314220312  0.2505631086583163  0.5000000127360811
  0.0000000295975243  0.7494368926294169  0.5000000105431825
  0.2505631087210153  0.5000000214771003  0.0000000304369398
  0.7494368926338444  0.5000000229399538  0.0000000367739804
  0.5000000199934665  0.0000000305015449  0.7494368907410967
  0.5000000193226725  0.0000000258254915  0.2505631092840224
  0.2642259752140258  0.5000000412638462  0.5000000414118037
  0.7357741575439335  0.5000000485235471  0.5000000316108403
  0.5000000354821599  0.2642259940401924  0.5000000362102853
  0.5000000367070067  0.7357741572180297  0.5000000359650257
  0.5000000356424030  0.5000000383477685  0.2642259844453521
  0.5000000305743374  0.5000000421970319  0.7357741462175618
  0.4999999375524763  0.4999999354208388  0.4999999395024057
 
  0.00000000E+00  0.00000000E+00  0.00000000E+00
  0.00000000E+00  0.00000000E+00  0.00000000E+00
  0.00000000E+00  0.00000000E+00  0.00000000E+00
  0.00000000E+00  0.00000000E+00  0.00000000E+00
  0.00000000E+00  0.00000000E+00  0.00000000E+00
  0.00000000E+00  0.00000000E+00  0.00000000E+00
  0.00000000E+00  0.00000000E+00  0.00000000E+00
  0.00000000E+00  0.00000000E+00  0.00000000E+00
  0.00000000E+00  0.00000000E+00  0.00000000E+00
  0.00000000E+00  0.00000000E+00  0.00000000E+00
  0.00000000E+00  0.00000000E+00  0.00000000E+00
  0.00000000E+00  0.00000000E+00  0.00000000E+00
  0.00000000E+00  0.00000000E+00  0.00000000E+00
  0.00000000E+00  0.00000000E+00  0.00000000E+00
  0.00000000E+00  0.00000000E+00  0.00000000E+00
  0.00000000E+00  0.00000000E+00  0.00000000E+00
  0.00000000E+00  0.00000000E+00  0.00000000E+00
  0.00000000E+00  0.00000000E+00  0.00000000E+00
  0.00000000E+00  0.00000000E+00  0.00000000E+00
  0.00000000E+00  0.00000000E+00  0.00000000E+00
  0.00000000E+00  0.00000000E+00  0.00000000E+00
  0.00000000E+00  0.00000000E+00  0.00000000E+00
  0.00000000E+00  0.00000000E+00  0.00000000E+00
  0.00000000E+00  0.00000000E+00  0.00000000E+00
  0.00000000E+00  0.00000000E+00  0.00000000E+00
  0.00000000E+00  0.00000000E+00  0.00000000E+00
  0.00000000E+00  0.00000000E+00  0.00000000E+00
  0.00000000E+00  0.00000000E+00  0.00000000E+00
  0.00000000E+00  0.00000000E+00  0.00000000E+00
  0.00000000E+00  0.00000000E+00  0.00000000E+00
  0.00000000E+00  0.00000000E+00  0.00000000E+00
  0.00000000E+00  0.00000000E+00  0.00000000E+00
  0.00000000E+00  0.00000000E+00  0.00000000E+00
  0.00000000E+00  0.00000000E+00  0.00000000E+00
  0.00000000E+00  0.00000000E+00  0.00000000E+00
  0.00000000E+00  0.00000000E+00  0.00000000E+00
  0.00000000E+00  0.00000000E+00  0.00000000E+00
  0.00000000E+00  0.00000000E+00  0.00000000E+00
  0.00000000E+00  0.00000000E+00  0.00000000E+00
  0.00000000E+00  0.00000000E+00  0.00000000E+00
